
List of user-set options:

                                    Name   Value                used
                   hessian_approximation = limited-memory        yes
                           linear_solver = ma57                  yes
                  ma57_automatic_scaling = yes                   yes
                                max_iter = 350                   yes
                             mu_strategy = adaptive              yes
                             output_file = SPARTAN-CombinedIPOPTinfo.txt  yes
                             print_level = 5                     yes
                      print_user_options = yes                   yes
                                     tol = 1e-007                yes
This is Ipopt version 3.11.0, running with linear solver ma57.

Number of nonzeros in equality constraint Jacobian...:    35371
Number of nonzeros in inequality constraint Jacobian.:     2822
Number of nonzeros in Lagrangian Hessian.............:        0

Total number of variables............................:     2383
                     variables with only lower bounds:        0
                variables with lower and upper bounds:     2383
                     variables with only upper bounds:        0
Total number of equality constraints.................:     1945
Total number of inequality constraints...............:      218
        inequality constraints with only lower bounds:        0
   inequality constraints with lower and upper bounds:      218
        inequality constraints with only upper bounds:        0

iter    objective    inf_pr   inf_du lg(mu)  ||d||  lg(rg) alpha_du alpha_pr  ls
   0 -1.2198507e+006 3.59e-002 1.10e+007   0.0 0.00e+000    -  0.00e+000 0.00e+000   0
   1 1.4283258e+004 5.22e-007 5.33e-001  -5.8 8.56e-003    -  9.82e-001 1.00e+000h  1
   2 -4.5179360e+003 8.11e-007 2.19e+000  -3.6 4.73e-002    -  9.86e-001 1.00e+000h  1
   3 -5.8189989e+005 3.49e-007 5.09e-001  -3.5 3.20e-002    -  9.99e-001 1.00e+000h  1
   4 4.5241796e+005 4.04e-010 1.84e+000  -4.3 3.92e-002    -  1.00e+000 1.00e+000H  1
   5 -4.6171060e+005 5.13e-008 1.12e+000  -5.7 3.97e-002    -  1.00e+000 1.00e+000f  1
   6 -1.0037147e+005 5.43e-008 3.89e-001  -7.1 1.62e-002    -  1.00e+000 1.00e+000h  1
   7 2.1966320e+005 3.33e-011 6.72e-003  -9.0 2.02e-002    -  1.00e+000 1.00e+000H  1
   8 -1.8733189e+005 2.57e-008 5.07e-001 -11.1 1.83e-002    -  1.00e+000 1.00e+000f  1
   9 5.0229820e+002 8.71e-009 3.86e-001 -12.3 7.42e-003    -  1.00e+000 1.00e+000h  1
iter    objective    inf_pr   inf_du lg(mu)  ||d||  lg(rg) alpha_du alpha_pr  ls
  10 1.5625834e+004 4.26e-010 6.98e-002 -12.3 2.07e-003    -  1.00e+000 1.00e+000h  1
  11 1.8288271e+004 1.00e-010 2.30e-002 -12.3 1.43e-003    -  1.00e+000 1.00e+000h  1
  12 1.9190527e+004 6.07e-012 1.15e-003 -12.3 2.32e-004    -  1.00e+000 1.00e+000h  1
  13 1.9090446e+004 1.83e-011 1.15e-003 -12.3 2.72e-004    -  1.00e+000 1.00e+000h  1
  14 1.6392837e+004 1.30e-008 1.71e-001 -12.3 5.11e-003    -  1.00e+000 1.00e+000h  1
  15 1.0336071e+004 2.02e-009 2.26e-001 -12.3 5.52e-003    -  1.00e+000 1.00e+000h  1
  16 2.9172498e+003 7.05e-009 6.40e-002 -12.3 4.34e-003    -  1.00e+000 1.00e+000h  1
  17 1.6663954e+004 4.24e-010 1.35e-001 -12.3 4.28e-003    -  1.00e+000 1.00e+000h  1
  18 1.3995288e+004 2.98e-010 2.00e-002 -12.3 3.34e-003    -  1.00e+000 1.00e+000h  1
  19 1.8481044e+004 1.42e-012 1.11e-003 -12.3 1.21e-004    -  1.00e+000 1.00e+000h  1
iter    objective    inf_pr   inf_du lg(mu)  ||d||  lg(rg) alpha_du alpha_pr  ls
  20 1.8246932e+004 1.42e-010 1.10e-003 -12.3 6.63e-004    -  1.00e+000 1.00e+000h  1
  21 1.5588464e+004 1.59e-008 4.72e-001 -12.3 9.43e-003    -  1.00e+000 1.00e+000h  1
  22 -1.9865204e+004 1.27e-008 5.88e-002 -12.3 9.81e-003    -  1.00e+000 1.00e+000h  1
  23 1.0861561e+005 8.66e-012 4.24e-003 -12.3 1.38e-002    -  1.00e+000 1.00e+000H  1
  24 -7.2763751e+004 1.45e-008 1.01e-001 -12.3 1.32e-002    -  1.00e+000 1.00e+000f  1
  25 1.7777851e+004 2.85e-011 1.06e-003 -12.3 5.09e-004    -  1.00e+000 1.00e+000h  1
  26 1.7814122e+004 2.57e-011 1.05e-003 -12.3 4.49e-004    -  1.00e+000 1.00e+000h  1
  27 1.7642354e+004 7.49e-011 1.05e-003 -12.3 6.90e-004    -  1.00e+000 1.00e+000h  1
  28 1.7445306e+004 1.83e-010 1.04e-003 -12.3 1.39e-003    -  1.00e+000 1.00e+000h  1
  29 1.7049562e+004 1.55e-010 6.52e-002 -12.3 1.36e-003    -  1.00e+000 1.00e+000h  1
iter    objective    inf_pr   inf_du lg(mu)  ||d||  lg(rg) alpha_du alpha_pr  ls
  30 1.6260210e+004 6.46e-010 8.84e-002 -12.3 2.47e-003    -  1.00e+000 1.00e+000h  1
  31 1.4827140e+004 6.39e-010 1.18e-001 -12.3 3.43e-003    -  1.00e+000 1.00e+000h  1
  32 1.5497847e+004 4.04e-010 3.64e-002 -12.3 2.04e-003    -  1.00e+000 1.00e+000h  1
  33 1.6745655e+004 8.68e-011 9.92e-004 -12.3 8.91e-004    -  1.00e+000 1.00e+000h  1
  34 1.5906110e+004 5.81e-009 9.26e-002 -12.3 2.42e-003    -  1.00e+000 1.00e+000h  1
  35 1.9964308e+003 4.14e-007 9.32e-001 -12.3 2.26e-002    -  1.00e+000 1.00e+000h  1
  36 -1.9325817e+005 8.22e-007 2.75e+000 -12.3 5.26e-002    -  1.00e+000 1.00e+000h  1
  37 -1.9637033e+006 5.76e-006 3.01e+000 -12.3 8.17e-002    -  1.00e+000 1.00e+000h  1
  38 -3.7867450e+007 1.15e-003 5.34e+001 -12.3 1.89e+000    -  1.00e+000 7.34e-001f  1
  39 -1.2971260e+009 6.82e-004 2.14e+001 -11.9 1.40e+000    -  1.00e+000 1.00e+000f  1
iter    objective    inf_pr   inf_du lg(mu)  ||d||  lg(rg) alpha_du alpha_pr  ls
  40 -2.0853984e+009 1.18e-003 9.38e+001  -9.9 1.49e+001    -  4.08e-001 1.72e-001f  1
  41 -2.5935911e+009 8.81e-004 6.99e+001 -10.1 2.83e+000    -  1.00e+000 1.00e+000f  1
  42 -3.3405073e+009 1.85e-003 8.97e+001 -10.3 3.70e+000    -  1.00e+000 1.00e+000f  1
  43 -2.8164923e+009 5.22e-004 4.15e+001  -9.3 2.25e+000    -  1.00e+000 1.00e+000h  1
  44 -1.2872600e+009 3.42e-004 4.34e+001  -9.6 1.37e+000    -  1.00e+000 1.00e+000h  1
  45 -2.4249880e+008 2.48e-005 2.70e+001 -10.8 9.04e-001    -  1.00e+000 1.00e+000h  1
  46 -1.1631179e+008 5.35e-006 6.70e+000 -10.4 3.64e-001    -  1.00e+000 1.00e+000h  1
  47 -4.4542110e+006 5.73e-007 2.99e+000 -11.7 9.86e-002    -  1.00e+000 1.00e+000h  1
  48 -1.8091559e+005 5.26e-008 1.07e+000 -12.3 3.19e-002    -  1.00e+000 1.00e+000h  1
  49 1.7342197e+005 1.40e-008 2.62e-001 -12.3 1.92e-002    -  1.00e+000 1.00e+000h  1
iter    objective    inf_pr   inf_du lg(mu)  ||d||  lg(rg) alpha_du alpha_pr  ls
  50 3.1864684e+005 3.67e-009 2.69e-001 -12.3 7.32e-003    -  1.00e+000 1.00e+000h  1
  51 1.3080453e+005 9.79e-008 6.69e-001 -12.3 2.75e-002    -  1.00e+000 1.00e+000h  1
  52 1.0161799e+005 6.93e-008 7.07e-001 -12.3 2.05e-002    -  1.00e+000 1.00e+000h  1
  53 3.0131725e+004 9.50e-009 5.45e-001 -12.3 1.63e-002    -  1.00e+000 1.00e+000h  1
  54 1.7539782e+005 1.92e-009 1.86e-001 -12.3 8.05e-003    -  1.00e+000 1.00e+000h  1
  55 1.8615613e+005 7.24e-010 4.66e-002 -12.3 1.53e-003    -  1.00e+000 1.00e+000h  1
  56 -2.2943762e+005 1.24e-006 2.05e+000 -12.3 4.40e-002    -  1.00e+000 1.00e+000f  1
  57 -1.7415337e+006 3.78e-006 8.53e+000 -12.3 1.38e-001    -  1.00e+000 1.00e+000h  1
  58 -7.8408169e+006 5.59e-006 1.37e+000 -12.3 1.48e-001    -  1.00e+000 1.00e+000h  1
  59 2.3695496e+007 3.06e-008 1.23e+001 -12.3 3.68e-001    -  1.00e+000 1.00e+000H  1
iter    objective    inf_pr   inf_du lg(mu)  ||d||  lg(rg) alpha_du alpha_pr  ls
  60 -2.3503583e+007 3.40e-006 8.06e-001 -12.3 3.42e-001    -  1.00e+000 1.00e+000f  1
  61 -9.8814013e+004 5.11e-008 6.46e-001 -12.3 1.96e-002    -  1.00e+000 1.00e+000h  1
  62 -1.8192770e+004 3.32e-008 1.90e-001 -12.3 1.39e-002    -  1.00e+000 1.00e+000h  1
  63 7.6763573e+004 1.74e-009 1.55e-001 -12.3 5.21e-003    -  1.00e+000 1.00e+000h  1
  64 8.3060253e+004 5.23e-010 7.14e-002 -12.3 2.32e-003    -  1.00e+000 1.00e+000h  1
  65 8.5758778e+004 2.05e-010 5.30e-002 -12.3 1.28e-003    -  1.00e+000 1.00e+000h  1
  66 8.4736351e+004 2.79e-010 4.42e-003 -12.3 8.53e-004    -  1.00e+000 1.00e+000h  1
  67 -1.0148365e+005 1.98e-006 2.14e+000 -12.3 6.48e-002    -  1.00e+000 1.00e+000f  1
  68 -1.0010600e+006 8.92e-007 1.36e+000 -12.3 6.61e-002    -  1.00e+000 1.00e+000h  1
  69 -2.0627194e+006 2.02e-006 3.61e+000 -12.3 8.62e-002    -  1.00e+000 1.00e+000h  1
iter    objective    inf_pr   inf_du lg(mu)  ||d||  lg(rg) alpha_du alpha_pr  ls
  70 -2.5160255e+006 1.30e-006 1.23e+000 -12.3 7.09e-002    -  1.00e+000 1.00e+000h  1
  71 4.5749186e+006 3.02e-009 5.15e+000 -12.3 1.10e-001    -  1.00e+000 1.00e+000H  1
  72 -4.5316276e+006 7.13e-007 5.45e-001 -12.3 9.19e-002    -  1.00e+000 1.00e+000f  1
  73 -1.7730101e+004 7.43e-009 5.25e-001 -12.3 1.25e-002    -  1.00e+000 1.00e+000h  1
  74 1.2307710e+004 2.89e-009 6.56e-002 -12.3 7.13e-003    -  1.00e+000 1.00e+000h  1
  75 4.2773690e+004 1.16e-011 2.79e-003 -12.3 3.97e-004    -  1.00e+000 1.00e+000h  1
  76 4.0403131e+004 4.75e-010 5.50e-002 -12.3 2.05e-003    -  1.00e+000 1.00e+000h  1
  77 6.2361488e+004 3.96e-012 4.27e-003 -12.3 1.39e-002    -  1.00e+000 1.00e+000H  1
  78 6.6256223e+003 8.94e-009 2.66e-001 -12.3 1.20e-002    -  1.00e+000 1.00e+000f  1
  79 3.9074355e+003 5.50e-009 1.99e-001 -12.3 9.46e-003    -  1.00e+000 1.00e+000h  1
iter    objective    inf_pr   inf_du lg(mu)  ||d||  lg(rg) alpha_du alpha_pr  ls
  80 2.0691865e+004 2.60e-009 2.16e-001 -12.3 6.84e-003    -  1.00e+000 1.00e+000h  1
  81 2.5779390e+004 1.99e-009 5.57e-002 -12.3 4.33e-003    -  1.00e+000 1.00e+000h  1
  82 3.1008762e+004 2.10e-009 1.31e-001 -12.3 3.84e-003    -  1.00e+000 1.00e+000h  1
  83 2.8473457e+004 5.69e-010 3.42e-002 -12.3 2.90e-003    -  1.00e+000 1.00e+000h  1
  84 3.3459741e+004 1.74e-011 2.09e-003 -12.3 4.38e-004    -  1.00e+000 1.00e+000h  1
  85 3.2196484e+004 3.62e-010 2.18e-003 -12.3 1.12e-003    -  1.00e+000 1.00e+000h  1
  86 -2.3103519e+004 9.11e-007 2.90e+000 -12.3 4.37e-002    -  1.00e+000 1.00e+000h  1
  87 -5.8718526e+005 3.43e-007 1.05e+000 -12.3 4.39e-002    -  1.00e+000 1.00e+000h  1
  88 -2.1041823e+006 6.28e-006 7.45e+000 -12.3 1.31e-001    -  1.00e+000 1.00e+000h  1
  89 -6.0291137e+006 5.47e-006 1.56e+000 -12.3 1.14e-001    -  1.00e+000 1.00e+000h  1
iter    objective    inf_pr   inf_du lg(mu)  ||d||  lg(rg) alpha_du alpha_pr  ls
  90 -1.3685479e+007 1.42e-005 1.73e+001 -12.3 5.02e-001    -  1.00e+000 1.00e+000h  1
  91 -1.0212608e+008 1.30e-005 9.41e-001 -12.3 4.61e-001    -  1.00e+000 1.00e+000f  1
  92 -7.9581634e+005 1.25e-007 2.65e+000 -12.3 5.68e-002    -  1.00e+000 1.00e+000h  1
  93 -9.9386600e+005 6.93e-008 7.92e-002 -12.3 4.33e-002    -  1.00e+000 1.00e+000h  1
  94 2.4844404e+004 3.76e-011 1.49e-003 -12.3 4.75e-004    -  1.00e+000 1.00e+000h  1
  95 2.1946572e+004 3.39e-009 1.40e-001 -12.3 3.22e-003    -  1.00e+000 1.00e+000h  1
  96 1.9772023e+004 2.19e-009 1.10e-001 -12.3 3.24e-003    -  1.00e+000 1.00e+000h  1
  97 1.7476265e+004 1.99e-009 8.92e-002 -12.3 3.84e-003    -  1.00e+000 1.00e+000h  1
  98 2.1420032e+004 2.11e-010 4.38e-002 -12.3 1.86e-003    -  1.00e+000 1.00e+000h  1
  99 2.3267960e+004 3.08e-011 1.63e-003 -12.3 5.03e-004    -  1.00e+000 1.00e+000h  1
iter    objective    inf_pr   inf_du lg(mu)  ||d||  lg(rg) alpha_du alpha_pr  ls
 100 2.3057478e+004 9.18e-011 1.71e-003 -12.3 6.38e-004    -  1.00e+000 1.00e+000h  1
 101 2.2139834e+004 5.59e-010 8.73e-002 -12.3 1.75e-003    -  1.00e+000 1.00e+000h  1
 102 1.4852541e+004 2.47e-008 4.80e-001 -12.3 9.42e-003    -  1.00e+000 1.00e+000h  1
 103 -1.5357404e+004 4.14e-008 6.51e-001 -12.3 1.51e-002    -  1.00e+000 1.00e+000h  1
 104 -1.7169799e+005 1.37e-007 1.65e+000 -12.3 3.81e-002    -  1.00e+000 1.00e+000h  1
 105 -4.9052192e+005 1.06e-007 1.56e-001 -12.3 2.70e-002    -  1.00e+000 1.00e+000h  1
 106 1.0858336e+004 2.73e-009 9.47e-002 -12.3 3.55e-003    -  1.00e+000 1.00e+000h  1
 107 2.3703273e+004 4.27e-013 1.37e-003 -12.3 4.55e-003    -  1.00e+000 1.00e+000H  1
 108 4.3355430e+003 2.32e-009 1.85e-001 -12.3 4.42e-003    -  1.00e+000 1.00e+000f  1
 109 3.4160674e+003 2.02e-009 7.75e-002 -12.3 5.81e-003    -  1.00e+000 1.00e+000h  1
iter    objective    inf_pr   inf_du lg(mu)  ||d||  lg(rg) alpha_du alpha_pr  ls
 110 1.2748519e+004 5.95e-010 1.25e-001 -12.3 3.41e-003    -  1.00e+000 1.00e+000h  1
 111 1.2630119e+004 2.34e-010 2.30e-002 -12.3 2.08e-003    -  1.00e+000 1.00e+000h  1
 112 1.5784413e+004 1.44e-011 1.28e-003 -12.3 4.19e-004    -  1.00e+000 1.00e+000h  1
 113 1.5533141e+004 1.97e-010 1.33e-003 -12.3 5.51e-004    -  1.00e+000 1.00e+000h  1
 114 -3.2158015e+004 2.75e-006 1.64e+000 -12.3 4.94e-002    -  1.00e+000 1.00e+000h  1
 115 -8.9561980e+005 1.42e-005 5.75e+000 -12.3 1.66e-001    -  1.00e+000 1.00e+000h  1
 116 -1.4324991e+007 3.49e-005 1.61e+001 -12.3 3.80e-001    -  1.00e+000 1.00e+000h  1
 117 -6.1522084e+007 1.21e-004 1.49e+001 -12.3 7.18e-001    -  1.79e-001 5.93e-001f  1
 118 -1.0189168e+009 5.45e-003 3.01e+002 -12.3 6.81e+000    -  1.00e+000 1.00e+000f  1
 119 -1.8406225e+010 4.40e-003 8.63e+001 -12.3 6.48e+000    -  3.93e-002 1.00e+000f  1
iter    objective    inf_pr   inf_du lg(mu)  ||d||  lg(rg) alpha_du alpha_pr  ls
 120 -1.7169715e+010 4.08e-003 7.96e+001 -10.3 3.55e+000    -  1.00e+000 7.27e-002h  1
 121 -2.2940301e+008 7.19e-004 7.51e+001 -10.0 1.70e+000    -  1.00e+000 1.00e+000h  1
 122 -6.3156299e+008 5.59e-004 5.38e+001 -10.1 1.73e+000    -  1.00e+000 2.98e-001f  1
 123 -1.9866232e+009 1.42e-003 9.77e+001 -10.1 3.63e+000    -  3.26e-007 1.00e+000f  1
 124 -1.9885499e+009 1.42e-003 9.76e+001 -10.1 4.26e+000    -  1.00e+000 1.03e-003h  1
 125 -3.2411838e+009 1.05e-003 4.65e+001 -10.1 3.40e+000    -  1.00e+000 1.00e+000f  1
 126 -4.4028568e+008 2.72e-004 6.35e+001  -9.2 2.44e+000    -  1.00e+000 1.00e+000h  1
 127 -5.9144174e+008 1.69e-004 1.31e+001  -5.7 1.50e+000    -  8.86e-001 1.00e+000f  1
 128 -6.4603241e+007 1.24e-005 2.56e+001  -4.4 6.96e-001    -  1.00e+000 1.00e+000h  1
 129 -8.2787870e+007 8.76e-006 1.15e+000  -4.5 4.30e-001    -  1.00e+000 1.00e+000h  1
iter    objective    inf_pr   inf_du lg(mu)  ||d||  lg(rg) alpha_du alpha_pr  ls
 130 1.7132753e+005 4.32e-008 5.82e-001  -6.1 1.65e-002    -  1.00e+000 1.00e+000h  1
 131 9.4106967e+004 3.68e-008 6.75e-001  -6.2 1.63e-002    -  1.00e+000 1.00e+000h  1
 132 1.2843446e+005 1.90e-008 2.69e+000  -6.2 1.23e-002    -  5.37e-001 1.00e+000h  1
 133 8.5880109e+004 1.45e-008 3.98e-001  -6.2 1.27e-002    -  1.00e+000 1.00e+000h  1
 134 7.4067186e+004 1.02e-008 4.37e-001  -6.2 8.72e-003    -  7.57e-001 1.00e+000h  1
 135 3.7417919e+004 1.41e-008 3.47e-001  -6.2 1.10e-002    -  1.00e+000 1.00e+000h  1
 136 5.7268529e+004 5.37e-009 1.71e-001  -6.2 9.06e-003    -  1.00e+000 1.00e+000h  1
 137 8.0272761e+004 4.73e-010 8.47e-002  -6.2 5.11e-003    -  1.00e+000 1.00e+000h  1
 138 8.5439361e+004 1.59e-010 2.15e-002  -6.2 1.08e-003    -  1.00e+000 1.00e+000h  1
 139 7.3426520e+004 3.72e-009 1.51e-001  -6.2 4.65e-003    -  1.00e+000 1.00e+000h  1
iter    objective    inf_pr   inf_du lg(mu)  ||d||  lg(rg) alpha_du alpha_pr  ls
 140 1.3274955e+005 8.88e-012 4.68e-003  -6.2 1.15e-002    -  1.00e+000 1.00e+000H  1
 141 1.5641283e+004 8.52e-009 2.46e-001  -6.2 1.25e-002    -  1.00e+000 1.00e+000f  1
 142 3.9513270e+004 1.20e-008 2.99e-001  -6.2 1.17e-002    -  1.00e+000 1.00e+000h  1
 143 5.0383575e+004 3.93e-009 1.82e-001  -6.2 7.09e-003    -  1.00e+000 1.00e+000h  1
 144 6.3770561e+004 2.41e-009 1.97e-001  -6.2 5.71e-003    -  1.00e+000 1.00e+000h  1
 145 6.8645772e+004 9.28e-010 6.80e-002  -6.2 3.50e-003    -  1.00e+000 1.00e+000h  1
 146 7.3335965e+004 4.32e-010 1.08e-001  -6.2 2.51e-003    -  1.00e+000 1.00e+000h  1
 147 7.3805473e+004 2.15e-010 2.02e-002  -6.2 1.54e-003    -  1.00e+000 1.00e+000h  1
 148 7.5086254e+004 1.48e-011 3.90e-003  -6.2 3.01e-004    -  1.00e+000 1.00e+000h  1
 149 6.1348954e+004 2.21e-008 3.97e-001  -6.2 8.18e-003    -  1.00e+000 1.00e+000h  1
iter    objective    inf_pr   inf_du lg(mu)  ||d||  lg(rg) alpha_du alpha_pr  ls
 150 4.6703230e+004 5.99e-009 6.03e-001  -6.2 1.11e-002    -  1.00e+000 1.00e+000h  1
 151 8.4762974e+003 1.45e-008 2.67e-001  -6.2 9.29e-003    -  1.00e+000 1.00e+000h  1
 152 5.0383209e+004 5.49e-009 1.40e-001  -6.2 6.46e-003    -  1.00e+000 1.00e+000h  1
 153 5.5764870e+004 2.99e-009 2.53e-001  -6.2 5.23e-003    -  1.00e+000 1.00e+000h  1
 154 5.1921184e+004 5.06e-009 2.16e-001  -6.2 7.66e-003    -  1.00e+000 1.00e+000h  1
 155 4.4335785e+004 3.47e-009 3.04e-001  -6.2 1.13e-002    -  1.00e+000 1.00e+000h  1
 156 3.9730896e+004 1.92e-009 5.16e-002  -6.2 7.29e-003    -  1.00e+000 1.00e+000h  1
 157 6.2494482e+004 5.87e-011 3.04e-003  -6.2 3.62e-004    -  1.00e+000 1.00e+000h  1
 158 1.0744431e+005 6.97e-013 4.06e-003  -6.2 1.64e-002    -  5.84e-001 1.00e+000H  1
 159 -2.5946255e+005 1.72e-005 4.08e+000  -6.2 6.82e-001    -  1.00e+000 1.79e-001f  1
iter    objective    inf_pr   inf_du lg(mu)  ||d||  lg(rg) alpha_du alpha_pr  ls
 160 -5.3872805e+006 5.45e-006 6.70e+000  -6.2 1.82e-001    -  1.00e+000 1.00e+000f  1
 161 -1.8055459e+007 5.92e-005 4.31e+000  -6.2 3.87e-001    -  1.11e-001 9.65e-001h  1
 162 -1.5643690e+008 1.10e-003 1.30e+002  -6.3 2.62e+000    -  1.00e+000 1.00e+000f  1
 163 -3.5196714e+009 1.01e-003 8.49e+000  -5.4 2.40e+000    -  1.00e+000 1.00e+000f  1
 164 -2.7095603e+009 7.86e-004 1.07e+001  -3.3 1.40e+000    -  1.88e-001 2.42e-001h  1
 165 -9.0090478e+007 3.37e-004 7.32e+001  -3.7 1.97e+000    -  1.00e+000 1.00e+000h  1
 166 -1.3690106e+009 3.05e-004 6.92e+000  -3.8 1.86e+000    -  1.00e+000 1.00e+000f  1
 167 -8.7852175e+008 1.80e-004 1.35e+001  -4.5 8.08e-001    -  1.00e+000 4.05e-001h  1
 168 -3.9171757e+007 4.55e-006 9.71e-001  -3.9 2.12e-001    -  1.00e+000 1.00e+000h  1
 169 -3.1406522e+004 6.75e-008 1.00e+000  -5.4 2.47e-002    -  1.00e+000 1.00e+000h  1
iter    objective    inf_pr   inf_du lg(mu)  ||d||  lg(rg) alpha_du alpha_pr  ls
 170 -5.9051791e+005 9.58e-007 2.55e+000  -5.5 5.65e-002    -  1.00e+000 1.00e+000h  1
 171 -3.6769909e+006 1.21e-005 1.21e+001  -5.9 2.76e-001    -  1.00e+000 1.00e+000h  1
 172 -3.3342192e+007 1.69e-005 3.18e+000  -6.0 2.63e-001    -  4.30e-001 1.00e+000f  1
 173 -4.3802065e+007 9.26e-005 3.48e+001  -6.9 7.84e-001    -  1.00e+000 9.75e-001h  1
 174 -2.0375199e+008 4.17e-005 1.03e+001  -7.0 7.40e-001    -  1.70e-002 1.00e+000f  1
 175 -2.9619495e+008 3.11e-004 5.41e+001  -6.3 1.93e+000    -  1.00e+000 1.00e+000f  1
 176 -7.1232769e+008 2.56e-004 4.35e+000  -6.4 1.50e+000    -  1.00e+000 1.00e+000f  1
 177 -4.5654986e+007 1.09e-005 2.00e+001  -7.4 4.99e-001    -  1.00e+000 1.00e+000h  1
 178 -9.7976416e+007 8.40e-006 8.45e-001  -7.5 4.14e-001    -  7.52e-001 1.00e+000h  1
 179 7.5424111e+002 7.16e-009 2.88e-001  -9.4 1.27e-002    -  1.00e+000 1.00e+000h  1
iter    objective    inf_pr   inf_du lg(mu)  ||d||  lg(rg) alpha_du alpha_pr  ls
 180 9.8196673e+003 3.62e-009 3.41e-001  -9.5 6.16e-003    -  1.00e+000 1.00e+000h  1
 181 3.2477798e+003 1.06e-008 3.18e-001  -9.5 7.46e-003    -  1.00e+000 1.00e+000h  1
 182 -1.5681401e+003 2.19e-009 1.92e-001  -9.5 8.28e-003    -  1.00e+000 1.00e+000h  1
 183 1.9402047e+004 3.88e-010 6.50e-002 -11.3 2.53e-003    -  1.00e+000 1.00e+000h  1
 184 2.2196500e+004 7.69e-011 1.49e-003 -11.4 5.85e-004    -  1.00e+000 1.00e+000h  1
 185 2.1824326e+004 2.60e-010 1.56e-003 -11.4 7.37e-004    -  1.00e+000 1.00e+000h  1
 186 1.8597429e+004 1.53e-008 1.62e-001 -11.4 4.36e-003    -  1.00e+000 1.00e+000h  1
 187 1.3061707e+004 5.10e-009 1.89e-001 -11.4 4.48e-003    -  1.00e+000 1.00e+000h  1
 188 9.6415487e+003 5.55e-009 9.51e-002 -11.4 4.32e-003    -  1.00e+000 1.00e+000h  1
 189 3.1125086e+004 1.40e-013 1.82e-003 -12.3 4.68e-003    -  1.00e+000 1.00e+000H  1
iter    objective    inf_pr   inf_du lg(mu)  ||d||  lg(rg) alpha_du alpha_pr  ls
 190 9.6882613e+003 1.63e-009 7.45e-003 -12.3 4.11e-003    -  1.00e+000 1.00e+000f  1
 191 2.0247759e+004 5.65e-011 1.26e-003 -12.3 1.69e-004    -  1.00e+000 1.00e+000h  1
 192 1.5293045e+003 1.42e-006 1.01e+000 -12.3 3.87e-002    -  1.00e+000 1.00e+000h  1
 193 -1.6537243e+005 1.54e-007 9.98e-001 -12.3 2.40e-002    -  1.00e+000 1.00e+000h  1
 194 -3.4732791e+005 1.26e-006 8.26e-001 -12.3 3.79e-002    -  1.00e+000 1.00e+000h  1
 195 -1.1112091e+006 2.48e-006 5.60e+000 -12.3 1.62e-001    -  1.00e+000 1.00e+000h  1
 196 -9.1653397e+006 4.40e-006 3.69e-001 -12.3 1.58e-001    -  1.00e+000 1.00e+000h  1
 197 -1.9960974e+005 5.22e-008 1.36e+000 -12.3 4.30e-002    -  1.00e+000 1.00e+000h  1
 198 -4.7983804e+005 4.29e-008 6.34e-002 -12.3 3.42e-002    -  1.00e+000 1.00e+000h  1
 199 1.6809831e+004 3.45e-011 8.32e-004 -12.3 5.87e-004    -  1.00e+000 1.00e+000h  1
iter    objective    inf_pr   inf_du lg(mu)  ||d||  lg(rg) alpha_du alpha_pr  ls
 200 1.6844820e+004 1.58e-011 8.25e-004 -12.3 3.05e-004    -  1.00e+000 1.00e+000h  1
 201 1.4558038e+004 3.39e-009 1.92e-001 -12.3 3.45e-003    -  1.00e+000 1.00e+000h  1
 202 8.5738139e+003 7.59e-009 1.83e-001 -12.3 5.75e-003    -  1.00e+000 1.00e+000h  1
 203 1.7035151e+003 9.72e-009 3.57e-001 -12.3 8.24e-003    -  1.00e+000 1.00e+000h  1
 204 -1.7249968e+004 2.83e-008 5.70e-001 -12.3 1.90e-002    -  1.00e+000 1.00e+000h  1
 205 -9.3022440e+004 2.51e-008 1.45e-001 -12.3 1.54e-002    -  1.00e+000 1.00e+000h  1
 206 -1.8496310e+004 3.87e-008 6.35e-001 -12.3 1.38e-002    -  1.00e+000 1.00e+000h  1
 207 -5.8985539e+004 1.95e-008 1.13e-001 -12.3 1.27e-002    -  1.00e+000 1.00e+000h  1
 208 3.0481673e+003 3.16e-009 2.78e-001 -12.3 6.25e-003    -  1.00e+000 1.00e+000h  1
 209 2.8597291e+003 1.49e-009 4.23e-002 -12.3 4.58e-003    -  1.00e+000 1.00e+000h  1
iter    objective    inf_pr   inf_du lg(mu)  ||d||  lg(rg) alpha_du alpha_pr  ls
 210 1.4989809e+004 9.70e-011 6.11e-002 -12.3 1.38e-003    -  1.00e+000 1.00e+000h  1
 211 1.5108637e+004 2.83e-011 9.54e-004 -12.3 9.34e-004    -  1.00e+000 1.00e+000h  1
 212 1.5448876e+004 7.44e-013 9.37e-004 -12.3 7.29e-005    -  1.00e+000 1.00e+000h  1
 213 1.4640655e+004 1.16e-009 6.24e-002 -12.3 2.06e-003    -  1.00e+000 1.00e+000h  1
 214 1.2511231e+004 1.21e-008 3.12e-001 -12.3 5.86e-003    -  1.00e+000 1.00e+000h  1
 215 -1.4437562e+003 3.71e-009 1.14e-001 -12.3 6.68e-003    -  1.00e+000 1.00e+000h  1
 216 9.7071295e+003 1.09e-009 8.61e-002 -12.3 3.77e-003    -  1.00e+000 1.00e+000h  1
 217 1.2856050e+004 1.57e-010 7.10e-002 -12.3 1.66e-003    -  1.00e+000 1.00e+000h  1
 218 1.3093887e+004 1.12e-009 5.44e-002 -12.3 1.65e-003    -  1.00e+000 1.00e+000h  1
 219 1.2350149e+004 6.89e-010 8.92e-002 -12.3 2.58e-003    -  1.00e+000 1.00e+000h  1
iter    objective    inf_pr   inf_du lg(mu)  ||d||  lg(rg) alpha_du alpha_pr  ls
 220 1.0361656e+004 3.93e-010 3.15e-002 -12.3 2.12e-003    -  1.00e+000 1.00e+000h  1
 221 1.3499524e+004 2.69e-011 9.92e-004 -12.3 7.13e-004    -  1.00e+000 1.00e+000h  1
 222 1.3507218e+004 2.64e-011 9.67e-004 -12.3 3.25e-004    -  1.00e+000 1.00e+000h  1
 223 1.2554280e+004 9.38e-010 8.95e-002 -12.3 2.17e-003    -  1.00e+000 1.00e+000h  1
 224 1.0064466e+004 2.82e-009 8.89e-002 -12.3 2.67e-003    -  1.00e+000 1.00e+000h  1
 225 -5.6626703e+004 7.79e-007 2.90e+000 -12.3 5.76e-002    -  1.00e+000 1.00e+000h  1
 226 -1.1560195e+006 5.51e-007 7.26e-001 -12.3 6.18e-002    -  1.00e+000 1.00e+000h  1
 227 -3.0500825e+006 7.30e-006 8.80e+000 -10.3 2.22e-001    -  1.00e+000 8.42e-001h  1
 228 -1.8996081e+007 6.74e-006 1.15e+000 -10.4 1.89e-001    -  1.84e-001 1.00e+000h  1
 229 4.6450694e+007 4.96e-008 1.22e+001 -11.7 2.24e-001    -  1.00e+000 1.00e+000H  1
iter    objective    inf_pr   inf_du lg(mu)  ||d||  lg(rg) alpha_du alpha_pr  ls
 230 -4.6620318e+007 6.85e-006 1.06e+000 -11.8 2.11e-001    -  1.00e+000 1.00e+000f  1
 231 -8.9979402e+005 2.57e-007 2.98e+000 -12.3 9.37e-002    -  1.00e+000 1.00e+000h  1
 232 -1.0880297e+006 1.43e-007 1.08e-001 -12.3 6.81e-002    -  1.00e+000 1.00e+000h  1
 233 1.0261270e+004 2.36e-011 7.19e-004 -12.3 8.52e-004    -  1.00e+000 1.00e+000h  1
 234 1.0504908e+004 6.53e-012 7.19e-004 -12.3 2.70e-004    -  1.00e+000 1.00e+000h  1
 235 1.0520784e+004 2.24e-012 7.06e-004 -12.3 1.50e-004    -  1.00e+000 1.00e+000h  1
 236 1.0453555e+004 1.76e-011 7.24e-004 -12.3 3.52e-004    -  1.00e+000 1.00e+000h  1
 237 1.0123880e+004 3.87e-010 4.34e-002 -12.3 1.12e-003    -  1.00e+000 1.00e+000h  1
 238 9.1277097e+003 2.17e-009 1.60e-001 -12.3 2.63e-003    -  1.00e+000 1.00e+000h  1
 239 6.2400751e+003 2.86e-009 1.00e-001 -12.3 3.60e-003    -  1.00e+000 1.00e+000h  1
iter    objective    inf_pr   inf_du lg(mu)  ||d||  lg(rg) alpha_du alpha_pr  ls
 240 8.2745477e+002 5.64e-009 2.33e-001 -12.3 8.65e-003    -  1.00e+000 1.00e+000h  1
 241 -6.0362493e+003 2.66e-009 1.13e-001 -12.3 5.29e-003    -  1.00e+000 1.00e+000h  1
 242 4.4038717e+003 5.68e-009 1.45e-001 -12.3 5.81e-003    -  1.00e+000 1.00e+000h  1
 243 2.6744051e+004 6.06e-013 1.73e-003 -12.3 7.21e-003    -  1.00e+000 1.00e+000H  1
 244 -7.1620543e+003 2.23e-009 2.79e-002 -12.3 6.24e-003    -  1.00e+000 1.00e+000f  1
 245 9.9946718e+003 7.82e-011 7.05e-004 -12.3 5.32e-004    -  1.00e+000 1.00e+000h  1
 246 9.8792641e+003 2.52e-010 8.03e-002 -12.3 1.62e-003    -  1.00e+000 1.00e+000h  1
 247 8.8901775e+003 1.75e-010 9.73e-003 -12.3 1.55e-003    -  1.00e+000 1.00e+000h  1
 248 9.9858788e+003 1.61e-011 7.05e-004 -12.3 3.18e-004    -  1.00e+000 1.00e+000h  1
 249 9.9948549e+003 4.32e-012 7.02e-004 -12.3 2.22e-004    -  1.00e+000 1.00e+000h  1
iter    objective    inf_pr   inf_du lg(mu)  ||d||  lg(rg) alpha_du alpha_pr  ls
 250 9.9904585e+003 8.71e-012 7.01e-004 -12.3 1.30e-004    -  1.00e+000 1.00e+000h  1
 251 8.8490826e+003 1.08e-008 1.44e-001 -12.3 3.44e-003    -  1.00e+000 1.00e+000h  1
 252 -3.9607428e+003 7.50e-007 1.56e+000 -12.3 3.74e-002    -  1.00e+000 1.00e+000h  1
 253 -5.9444733e+005 7.42e-007 2.60e-001 -12.3 3.73e-002    -  1.00e+000 1.00e+000h  1
 254 -4.5195396e+006 4.50e-005 2.21e+001 -12.0 6.42e-001    -  1.00e+000 1.00e+000f  1
 255 -1.8637933e+008 4.34e-005 4.71e-001 -12.1 6.21e-001    -  1.00e+000 1.00e+000f  1
 256 -2.2898619e+006 1.14e-006 5.17e+000 -12.1 1.42e-001    -  1.00e+000 1.00e+000h  1
 257 -1.3645561e+007 9.69e-007 1.91e-001 -12.1 1.31e-001    -  1.00e+000 1.00e+000h  1
 258 -9.0449703e+003 1.53e-009 2.37e-001 -12.3 6.05e-003    -  1.00e+000 1.00e+000h  1
 259 5.9182770e+003 1.24e-009 6.80e-002 -12.3 2.54e-003    -  1.00e+000 1.00e+000h  1
iter    objective    inf_pr   inf_du lg(mu)  ||d||  lg(rg) alpha_du alpha_pr  ls
 260 1.3760626e+004 4.11e-014 9.45e-004 -12.3 2.94e-003    -  1.00e+000 1.00e+000H  1
 261 5.6231020e+003 3.53e-010 2.43e-002 -12.3 2.57e-003    -  1.00e+000 1.00e+000f  1
 262 9.6378849e+003 1.56e-011 6.93e-004 -12.3 3.14e-004    -  1.00e+000 1.00e+000h  1
 263 9.6557762e+003 1.28e-011 6.91e-004 -12.3 2.26e-004    -  1.00e+000 1.00e+000h  1
 264 8.8568985e+003 2.14e-009 1.02e-001 -12.3 2.37e-003    -  1.00e+000 1.00e+000h  1
 265 4.8642201e+003 9.02e-008 5.84e-001 -12.3 1.21e-002    -  1.00e+000 1.00e+000h  1
 266 -5.0689986e+004 3.45e-008 1.87e-001 -12.3 1.40e-002    -  1.00e+000 1.00e+000h  1
 267 -1.2766526e+005 3.62e-007 1.66e+000 -12.3 3.55e-002    -  1.00e+000 1.00e+000h  1
 268 -8.8068238e+005 1.46e-007 4.64e-001 -12.3 3.72e-002    -  1.00e+000 1.00e+000h  1
 269 9.3098474e+005 4.79e-010 2.43e+000 -12.3 5.04e-002    -  1.00e+000 1.00e+000H  1
iter    objective    inf_pr   inf_du lg(mu)  ||d||  lg(rg) alpha_du alpha_pr  ls
 270 -9.2741608e+005 2.53e-007 4.12e-001 -12.3 4.49e-002    -  1.00e+000 1.00e+000f  1
 271 -4.1918757e+004 1.30e-008 4.40e-001 -12.3 1.03e-002    -  1.00e+000 1.00e+000h  1
 272 -1.6391494e+004 3.83e-009 4.64e-002 -12.3 6.98e-003    -  1.00e+000 1.00e+000h  1
 273 9.3506480e+003 2.93e-011 6.78e-004 -12.3 5.36e-004    -  1.00e+000 1.00e+000h  1
 274 9.3576091e+003 2.22e-011 6.80e-004 -12.3 3.32e-004    -  1.00e+000 1.00e+000h  1
 275 8.5846830e+003 1.25e-009 1.12e-001 -12.3 2.59e-003    -  1.00e+000 1.00e+000h  1
 276 6.1235683e+003 3.21e-010 3.67e-002 -12.3 2.18e-003    -  1.00e+000 1.00e+000h  1
 277 8.6789020e+003 2.88e-010 3.75e-002 -12.3 1.32e-003    -  1.00e+000 1.00e+000h  1
 278 8.9754815e+003 5.28e-011 6.82e-004 -12.3 1.04e-003    -  1.00e+000 1.00e+000h  1
 279 9.0631058e+003 3.86e-011 6.83e-004 -12.3 6.71e-004    -  1.00e+000 1.00e+000h  1
iter    objective    inf_pr   inf_du lg(mu)  ||d||  lg(rg) alpha_du alpha_pr  ls
 280 9.2613750e+003 1.52e-012 6.80e-004 -12.3 1.75e-004    -  1.00e+000 1.00e+000h  1
 281 9.2682140e+003 6.85e-013 6.81e-004 -12.3 6.54e-005    -  1.00e+000 1.00e+000h  1
 282 9.2185093e+003 2.26e-011 6.81e-004 -12.3 4.75e-004    -  1.00e+000 1.00e+000h  1
 283 9.1051777e+003 1.46e-010 4.76e-002 -12.3 9.31e-004    -  1.00e+000 1.00e+000h  1
 284 8.6355478e+003 6.34e-011 3.13e-002 -12.3 1.25e-003    -  1.00e+000 1.00e+000h  1
 285 9.0240260e+003 1.24e-011 6.71e-004 -12.3 6.29e-004    -  1.00e+000 1.00e+000h  1
 286 9.1520735e+003 4.36e-012 6.69e-004 -12.3 1.00e-004    -  1.00e+000 1.00e+000h  1
 287 8.6867791e+003 4.79e-009 7.61e-002 -12.3 2.13e-003    -  1.00e+000 1.00e+000h  1
 288 4.1658510e+003 5.59e-008 4.24e-001 -12.3 1.03e-002    -  1.00e+000 1.00e+000h  1
 289 -6.1533301e+004 1.83e-007 8.87e-001 -12.3 2.38e-002    -  1.00e+000 1.00e+000h  1
iter    objective    inf_pr   inf_du lg(mu)  ||d||  lg(rg) alpha_du alpha_pr  ls
 290 -4.2083082e+005 5.31e-007 1.90e+000 -12.3 4.05e-002    -  1.00e+000 1.00e+000h  1
 291 -2.4959824e+006 9.11e-006 6.48e+000 -12.3 1.35e-001    -  1.00e+000 1.00e+000h  1
 292 -1.2491470e+007 1.57e-005 6.22e+000 -12.3 3.05e-001    -  1.00e+000 9.52e-001h  1
 293 -2.9696871e+007 4.03e-005 9.53e+000 -12.3 3.19e-001    -  1.03e-007 1.00e+000h  1
 294 -4.8829890e+007 4.12e-005 7.99e+000 -12.3 9.18e-001    -  1.00e+000 2.24e-001f  1
 295 -1.0095119e+008 5.90e-005 3.60e+001 -10.3 9.97e-001    -  3.39e-001 1.00e+000f  1
 296 -5.0378038e+008 6.02e-005 2.48e+000  -6.1 9.65e-001    -  5.24e-001 1.00e+000f  1
 297 -2.6942616e+006 9.97e-007 4.82e+000  -7.5 1.05e-001    -  1.00e+000 1.00e+000h  1
 298 -1.9895536e+006 3.54e-007 4.22e-001  -7.6 6.77e-002    -  1.00e+000 1.00e+000h  1
 299 2.1046576e+004 7.13e-009 2.52e-001  -9.3 7.39e-003    -  1.00e+000 1.00e+000h  1
iter    objective    inf_pr   inf_du lg(mu)  ||d||  lg(rg) alpha_du alpha_pr  ls
 300 1.6070978e+004 1.17e-008 2.80e-001  -9.4 9.74e-003    -  1.00e+000 1.00e+000h  1
 301 -2.1710017e+004 6.31e-008 1.01e+000  -9.4 3.31e-002    -  1.00e+000 1.00e+000h  1
 302 -1.0384695e+005 3.28e-008 2.60e-001  -9.4 2.41e-002    -  1.00e+000 1.00e+000h  1
 303 5.8751060e+003 9.74e-009 3.51e-001 -11.0 8.31e-003    -  1.00e+000 1.00e+000h  1
 304 1.1840096e+004 1.96e-009 3.01e-001 -11.1 9.67e-003    -  1.00e+000 1.00e+000h  1
 305 1.7227131e+004 1.34e-009 4.13e-002 -11.1 4.85e-003    -  1.00e+000 1.00e+000h  1
 306 3.1368480e+004 5.74e-011 2.63e-003 -11.1 4.78e-004    -  1.00e+000 1.00e+000h  1
 307 3.0298791e+004 1.02e-009 5.35e-002 -11.1 1.45e-003    -  1.00e+000 1.00e+000h  1
 308 2.7002406e+004 6.32e-009 1.48e-001 -11.1 3.18e-003    -  1.00e+000 1.00e+000h  1
 309 3.9620801e+004 5.59e-012 3.28e-003 -11.1 8.82e-003    -  1.00e+000 1.00e+000H  1
iter    objective    inf_pr   inf_du lg(mu)  ||d||  lg(rg) alpha_du alpha_pr  ls
 310 -2.6457669e+003 2.86e-008 6.32e-001 -11.1 1.34e-002    -  1.00e+000 1.00e+000f  1
 311 -6.5841366e+004 3.70e-008 1.36e-001 -11.1 1.33e-002    -  1.00e+000 1.00e+000h  1
 312 5.7424787e+003 7.62e-009 4.52e-001 -11.1 1.06e-002    -  1.00e+000 1.00e+000h  1
 313 -2.6637192e+004 6.88e-009 4.51e-002 -11.1 9.64e-003    -  1.00e+000 1.00e+000h  1
 314 2.5598523e+004 3.79e-011 1.62e-003 -12.3 6.82e-004    -  1.00e+000 1.00e+000h  1
 315 2.5693658e+004 9.68e-012 1.63e-003 -12.3 3.35e-004    -  1.00e+000 1.00e+000h  1
 316 2.5269214e+004 5.95e-011 1.62e-003 -12.3 5.95e-004    -  1.00e+000 1.00e+000h  1
 317 2.1522617e+004 1.11e-008 2.16e-001 -12.3 4.61e-003    -  1.00e+000 1.00e+000h  1
 318 1.2000567e+004 1.89e-009 2.50e-001 -12.3 7.31e-003    -  1.00e+000 1.00e+000h  1
 319 1.0479506e+004 6.00e-009 4.91e-002 -12.3 6.35e-003    -  1.00e+000 1.00e+000h  1
iter    objective    inf_pr   inf_du lg(mu)  ||d||  lg(rg) alpha_du alpha_pr  ls
 320 2.3291408e+004 3.34e-010 7.04e-002 -12.3 1.58e-003    -  1.00e+000 1.00e+000h  1
 321 2.2878810e+004 9.11e-011 2.40e-002 -12.3 1.22e-003    -  1.00e+000 1.00e+000h  1
 322 2.3468733e+004 1.75e-010 1.79e-003 -12.3 4.52e-004    -  1.00e+000 1.00e+000h  1
 323 1.2080492e+005 7.22e-013 4.67e-003 -12.3 1.53e-002    -  1.00e+000 1.00e+000H  1
 324 -1.1116544e+005 1.84e-006 1.96e+000 -12.3 4.06e-002    -  1.00e+000 1.00e+000f  1
 325 -1.1106658e+006 7.02e-006 3.67e+000 -12.3 9.26e-002    -  1.00e+000 1.00e+000h  1
 326 -6.9142994e+006 3.10e-005 1.03e+001 -12.3 3.44e-001    -  1.00e+000 1.00e+000h  1
 327 -4.0062538e+007 4.25e-005 1.26e+001 -12.3 3.69e-001    -  1.00e+000 1.00e+000f  1
 328 -1.5631469e+008 4.99e-004 4.44e+001 -12.3 1.05e+000    -  1.00e+000 1.00e+000f  1
 329 -5.5562083e+008 1.30e-004 1.80e+001 -12.3 1.15e+000    -  6.44e-002 1.00e+000f  1
iter    objective    inf_pr   inf_du lg(mu)  ||d||  lg(rg) alpha_du alpha_pr  ls
 330 -4.9386597e+008 1.48e-004 1.71e+001 -12.3 1.20e+000    -  1.00e+000 5.00e-001h  2
 331 -1.2608373e+008 1.64e-005 1.92e+001 -12.3 5.55e-001    -  1.00e+000 1.00e+000h  1
 332 -5.6485019e+007 2.50e-005 5.65e+000 -12.3 2.78e-001    -  1.00e+000 1.00e+000h  1
 333 -1.5385420e+007 3.42e-006 1.49e+001 -12.3 3.34e-001    -  1.00e+000 1.00e+000h  1
 334 -2.1245809e+007 4.77e-006 4.55e-001 -12.3 2.51e-001    -  1.00e+000 1.00e+000h  1
 335 1.4499565e+005 5.09e-009 2.54e-001 -12.3 6.15e-003    -  1.00e+000 1.00e+000h  1
 336 2.4892094e+004 9.25e-008 4.89e-001 -12.3 1.29e-002    -  1.00e+000 1.00e+000h  1
 337 -2.0011393e+005 5.55e-007 2.23e+000 -12.3 4.01e-002    -  1.00e+000 1.00e+000h  1
 338 -6.2546006e+005 2.93e-007 3.78e-001 -12.3 3.33e-002    -  1.00e+000 1.00e+000h  1
 339 -4.7372412e+004 3.76e-008 9.33e-001 -12.3 1.91e-002    -  1.00e+000 1.00e+000h  1
iter    objective    inf_pr   inf_du lg(mu)  ||d||  lg(rg) alpha_du alpha_pr  ls
 340 -1.9908741e+004 1.72e-008 1.23e-001 -12.3 1.10e-002    -  1.00e+000 1.00e+000h  1
 341 4.5736737e+004 3.18e-009 1.04e-001 -12.3 2.52e-003    -  1.00e+000 1.00e+000h  1
 342 4.5639648e+004 1.15e-009 7.12e-002 -12.3 1.87e-003    -  1.00e+000 1.00e+000h  1
 343 2.8101343e+004 5.09e-008 3.17e-001 -12.3 7.69e-003    -  1.00e+000 1.00e+000h  1
 344 8.8106622e+004 4.74e-011 3.58e-003 -12.3 1.41e-002    -  1.00e+000 1.00e+000H  1
 345 -2.4586050e+004 1.71e-008 2.00e-001 -12.3 1.27e-002    -  1.00e+000 1.00e+000f  1
 346 9.8945296e+003 3.48e-009 3.37e-001 -12.3 7.00e-003    -  1.00e+000 1.00e+000h  1
 347 1.1096907e+004 2.47e-009 3.09e-002 -12.3 5.81e-003    -  1.00e+000 1.00e+000h  1
 348 3.0958325e+004 7.48e-010 1.99e-003 -12.3 7.02e-004    -  1.00e+000 1.00e+000h  1
 349 2.1070817e+004 8.96e-008 1.40e-001 -12.3 4.41e-003    -  1.00e+000 1.00e+000h  1
iter    objective    inf_pr   inf_du lg(mu)  ||d||  lg(rg) alpha_du alpha_pr  ls
 350 -6.1551864e+004 5.95e-006 2.97e+000 -12.3 6.08e-002    -  1.00e+000 1.00e+000h  1

Number of Iterations....: 350

                                   (scaled)                 (unscaled)
Objective...............: -6.1551863606013058e-004  -6.1551863606013059e+004
Dual infeasibility......:  2.9733048470311081e+000   2.9733048470311081e+008
Constraint violation....:  5.9473211034114444e-006   5.9473211034114444e-006
Complementarity.........:  5.0000000000000009e-013   5.0000000000000009e-005
Overall NLP error.......:  1.9907518064979751e-001   2.9733048470311081e+008


Number of objective function evaluations             = 375
Number of objective gradient evaluations             = 351
Number of equality constraint evaluations            = 375
Number of inequality constraint evaluations          = 375
Number of equality constraint Jacobian evaluations   = 351
Number of inequality constraint Jacobian evaluations = 351
Number of Lagrangian Hessian evaluations             = 0
Total CPU secs in IPOPT (w/o function evaluations)   =      5.776
Total CPU secs in NLP function evaluations           =     11.174

EXIT: Maximum Number of Iterations Exceeded.
ns Exceeded.
        = 388
Number of equality constraint Jacobian evaluations   = 352
Number of inequality constraint Jacobian evaluations = 352
Number of Lagrangian Hessian evaluations             = 0
Total CPU secs in IPOPT (w/o function evaluations)   =      4.404
Total CPU secs in NLP function evaluations           =     10.678

EXIT: Maximum Number of Iterations Exceeded.
